ITEM = 1..14;
capacity1 = 220;
capacity2 = 208;
capacity3 = 191;
profits = [100, 736, 410, 729, 424, 800, 877, 307, 310, 93, 870, 899, 281, 220];
weights = [13, 92, 31, 26, 71, 55, 87, 77, 74, 43, 46, 20, 22, 59];
